c description: Perfect Matching Principle on 
c generator: CNFgen (0.9.0)
c copyright: (C) 2012-2020 Massimo Lauria <massimo.lauria@uniroma1.it>
c url: https://massimolauria.net/cnfgen
c
p cnf 80 632
-1 -2 0
-1 -3 0
-1 -4 0
-1 -5 0
-1 -6 0
-1 -7 0
-1 -8 0
-1 -9 0
-1 -10 0
-1 -11 0
-1 -12 0
-2 -3 0
-2 -4 0
-2 -5 0
-2 -6 0
-2 -7 0
-2 -8 0
-2 -9 0
-2 -10 0
-2 -11 0
-2 -12 0
-3 -4 0
-3 -5 0
-3 -6 0
-3 -7 0
-3 -8 0
-3 -9 0
-3 -10 0
-3 -11 0
-3 -12 0
-4 -5 0
-4 -6 0
-4 -7 0
-4 -8 0
-4 -9 0
-4 -10 0
-4 -11 0
-4 -12 0
-5 -6 0
-5 -7 0
-5 -8 0
-5 -9 0
-5 -10 0
-5 -11 0
-5 -12 0
-6 -7 0
-6 -8 0
-6 -9 0
-6 -10 0
-6 -11 0
-6 -12 0
-7 -8 0
-7 -9 0
-7 -10 0
-7 -11 0
-7 -12 0
-8 -9 0
-8 -10 0
-8 -11 0
-8 -12 0
-9 -10 0
-9 -11 0
-9 -12 0
-10 -11 0
-10 -12 0
-11 -12 0
1 2 3 4 5 6 7 8 9 10 11 12 0
-1 -13 0
-1 -14 0
-1 -15 0
-1 -16 0
-1 -17 0
-1 -18 0
-1 -19 0
-1 -20 0
-1 -21 0
-1 -22 0
-1 -23 0
-13 -14 0
-13 -15 0
-13 -16 0
-13 -17 0
-13 -18 0
-13 -19 0
-13 -20 0
-13 -21 0
-13 -22 0
-13 -23 0
-14 -15 0
-14 -16 0
-14 -17 0
-14 -18 0
-14 -19 0
-14 -20 0
-14 -21 0
-14 -22 0
-14 -23 0
-15 -16 0
-15 -17 0
-15 -18 0
-15 -19 0
-15 -20 0
-15 -21 0
-15 -22 0
-15 -23 0
-16 -17 0
-16 -18 0
-16 -19 0
-16 -20 0
-16 -21 0
-16 -22 0
-16 -23 0
-17 -18 0
-17 -19 0
-17 -20 0
-17 -21 0
-17 -22 0
-17 -23 0
-18 -19 0
-18 -20 0
-18 -21 0
-18 -22 0
-18 -23 0
-19 -20 0
-19 -21 0
-19 -22 0
-19 -23 0
-20 -21 0
-20 -22 0
-20 -23 0
-21 -22 0
-21 -23 0
-22 -23 0
1 13 14 15 16 17 18 19 20 21 22 23 0
-24 -25 0
-24 -26 0
-24 -27 0
-24 -28 0
-24 -29 0
-24 -30 0
-25 -26 0
-25 -27 0
-25 -28 0
-25 -29 0
-25 -30 0
-26 -27 0
-26 -28 0
-26 -29 0
-26 -30 0
-27 -28 0
-27 -29 0
-27 -30 0
-28 -29 0
-28 -30 0
-29 -30 0
24 25 26 27 28 29 30 0
-2 -31 0
-2 -32 0
-2 -33 0
-2 -34 0
-2 -35 0
-2 -36 0
-31 -32 0
-31 -33 0
-31 -34 0
-31 -35 0
-31 -36 0
-32 -33 0
-32 -34 0
-32 -35 0
-32 -36 0
-33 -34 0
-33 -35 0
-33 -36 0
-34 -35 0
-34 -36 0
-35 -36 0
2 31 32 33 34 35 36 0
-37 -38 0
-37 -39 0
-37 -40 0
-37 -41 0
-38 -39 0
-38 -40 0
-38 -41 0
-39 -40 0
-39 -41 0
-40 -41 0
37 38 39 40 41 0
-3 -13 0
-3 -24 0
-3 -42 0
-3 -43 0
-13 -24 0
-13 -42 0
-13 -43 0
-24 -42 0
-24 -43 0
-42 -43 0
3 13 24 42 43 0
-4 -14 0
-4 -37 0
-4 -44 0
-4 -45 0
-4 -46 0
-4 -47 0
-14 -37 0
-14 -44 0
-14 -45 0
-14 -46 0
-14 -47 0
-37 -44 0
-37 -45 0
-37 -46 0
-37 -47 0
-44 -45 0
-44 -46 0
-44 -47 0
-45 -46 0
-45 -47 0
-46 -47 0
4 14 37 44 45 46 47 0
-15 -31 0
-15 -38 0
-15 -48 0
-15 -49 0
-15 -50 0
-15 -51 0
-15 -52 0
-31 -38 0
-31 -48 0
-31 -49 0
-31 -50 0
-31 -51 0
-31 -52 0
-38 -48 0
-38 -49 0
-38 -50 0
-38 -51 0
-38 -52 0
-48 -49 0
-48 -50 0
-48 -51 0
-48 -52 0
-49 -50 0
-49 -51 0
-49 -52 0
-50 -51 0
-50 -52 0
-51 -52 0
15 31 38 48 49 50 51 52 0
-32 -44 0
-32 -53 0
-32 -54 0
-32 -55 0
-32 -56 0
-32 -57 0
-44 -53 0
-44 -54 0
-44 -55 0
-44 -56 0
-44 -57 0
-53 -54 0
-53 -55 0
-53 -56 0
-53 -57 0
-54 -55 0
-54 -56 0
-54 -57 0
-55 -56 0
-55 -57 0
-56 -57 0
32 44 53 54 55 56 57 0
-5 -16 0
-5 -25 0
-5 -58 0
-5 -59 0
-5 -60 0
-5 -61 0
-16 -25 0
-16 -58 0
-16 -59 0
-16 -60 0
-16 -61 0
-25 -58 0
-25 -59 0
-25 -60 0
-25 -61 0
-58 -59 0
-58 -60 0
-58 -61 0
-59 -60 0
-59 -61 0
-60 -61 0
5 16 25 58 59 60 61 0
-6 -26 0
-6 -48 0
-6 -53 0
-6 -62 0
-6 -63 0
-6 -64 0
-6 -65 0
-26 -48 0
-26 -53 0
-26 -62 0
-26 -63 0
-26 -64 0
-26 -65 0
-48 -53 0
-48 -62 0
-48 -63 0
-48 -64 0
-48 -65 0
-53 -62 0
-53 -63 0
-53 -64 0
-53 -65 0
-62 -63 0
-62 -64 0
-62 -65 0
-63 -64 0
-63 -65 0
-64 -65 0
6 26 48 53 62 63 64 65 0
-7 -33 0
-7 -39 0
-7 -45 0
-7 -49 0
-7 -54 0
-7 -58 0
-7 -62 0
-7 -66 0
-7 -67 0
-7 -68 0
-7 -69 0
-33 -39 0
-33 -45 0
-33 -49 0
-33 -54 0
-33 -58 0
-33 -62 0
-33 -66 0
-33 -67 0
-33 -68 0
-33 -69 0
-39 -45 0
-39 -49 0
-39 -54 0
-39 -58 0
-39 -62 0
-39 -66 0
-39 -67 0
-39 -68 0
-39 -69 0
-45 -49 0
-45 -54 0
-45 -58 0
-45 -62 0
-45 -66 0
-45 -67 0
-45 -68 0
-45 -69 0
-49 -54 0
-49 -58 0
-49 -62 0
-49 -66 0
-49 -67 0
-49 -68 0
-49 -69 0
-54 -58 0
-54 -62 0
-54 -66 0
-54 -67 0
-54 -68 0
-54 -69 0
-58 -62 0
-58 -66 0
-58 -67 0
-58 -68 0
-58 -69 0
-62 -66 0
-62 -67 0
-62 -68 0
-62 -69 0
-66 -67 0
-66 -68 0
-66 -69 0
-67 -68 0
-67 -69 0
-68 -69 0
7 33 39 45 49 54 58 62 66 67 68 69 0
-8 -17 0
-8 -34 0
-8 -40 0
-8 -46 0
-8 -55 0
-8 -59 0
-8 -63 0
-8 -66 0
-8 -70 0
-8 -71 0
-8 -72 0
-8 -73 0
-17 -34 0
-17 -40 0
-17 -46 0
-17 -55 0
-17 -59 0
-17 -63 0
-17 -66 0
-17 -70 0
-17 -71 0
-17 -72 0
-17 -73 0
-34 -40 0
-34 -46 0
-34 -55 0
-34 -59 0
-34 -63 0
-34 -66 0
-34 -70 0
-34 -71 0
-34 -72 0
-34 -73 0
-40 -46 0
-40 -55 0
-40 -59 0
-40 -63 0
-40 -66 0
-40 -70 0
-40 -71 0
-40 -72 0
-40 -73 0
-46 -55 0
-46 -59 0
-46 -63 0
-46 -66 0
-46 -70 0
-46 -71 0
-46 -72 0
-46 -73 0
-55 -59 0
-55 -63 0
-55 -66 0
-55 -70 0
-55 -71 0
-55 -72 0
-55 -73 0
-59 -63 0
-59 -66 0
-59 -70 0
-59 -71 0
-59 -72 0
-59 -73 0
-63 -66 0
-63 -70 0
-63 -71 0
-63 -72 0
-63 -73 0
-66 -70 0
-66 -71 0
-66 -72 0
-66 -73 0
-70 -71 0
-70 -72 0
-70 -73 0
-71 -72 0
-71 -73 0
-72 -73 0
8 17 34 40 46 55 59 63 66 70 71 72 73 0
-9 -18 0
-9 -60 0
-9 -64 0
-9 -67 0
-9 -74 0
-9 -75 0
-18 -60 0
-18 -64 0
-18 -67 0
-18 -74 0
-18 -75 0
-60 -64 0
-60 -67 0
-60 -74 0
-60 -75 0
-64 -67 0
-64 -74 0
-64 -75 0
-67 -74 0
-67 -75 0
-74 -75 0
9 18 60 64 67 74 75 0
-10 -19 0
-10 -27 0
-10 -47 0
-10 -56 0
-10 -70 0
-10 -74 0
-10 -76 0
-19 -27 0
-19 -47 0
-19 -56 0
-19 -70 0
-19 -74 0
-19 -76 0
-27 -47 0
-27 -56 0
-27 -70 0
-27 -74 0
-27 -76 0
-47 -56 0
-47 -70 0
-47 -74 0
-47 -76 0
-56 -70 0
-56 -74 0
-56 -76 0
-70 -74 0
-70 -76 0
-74 -76 0
10 19 27 47 56 70 74 76 0
-11 -42 0
-11 -57 0
-11 -68 0
-11 -77 0
-11 -78 0
-11 -79 0
-42 -57 0
-42 -68 0
-42 -77 0
-42 -78 0
-42 -79 0
-57 -68 0
-57 -77 0
-57 -78 0
-57 -79 0
-68 -77 0
-68 -78 0
-68 -79 0
-77 -78 0
-77 -79 0
-78 -79 0
11 42 57 68 77 78 79 0
-20 -28 0
-20 -65 0
-20 -69 0
-20 -71 0
-20 -75 0
-20 -77 0
-20 -80 0
-28 -65 0
-28 -69 0
-28 -71 0
-28 -75 0
-28 -77 0
-28 -80 0
-65 -69 0
-65 -71 0
-65 -75 0
-65 -77 0
-65 -80 0
-69 -71 0
-69 -75 0
-69 -77 0
-69 -80 0
-71 -75 0
-71 -77 0
-71 -80 0
-75 -77 0
-75 -80 0
-77 -80 0
20 28 65 69 71 75 77 80 0
-12 -21 0
-12 -35 0
-12 -43 0
-12 -50 0
-12 -61 0
-12 -78 0
-21 -35 0
-21 -43 0
-21 -50 0
-21 -61 0
-21 -78 0
-35 -43 0
-35 -50 0
-35 -61 0
-35 -78 0
-43 -50 0
-43 -61 0
-43 -78 0
-50 -61 0
-50 -78 0
-61 -78 0
12 21 35 43 50 61 78 0
-22 -29 0
-22 -36 0
-22 -41 0
-22 -51 0
-22 -72 0
-29 -36 0
-29 -41 0
-29 -51 0
-29 -72 0
-36 -41 0
-36 -51 0
-36 -72 0
-41 -51 0
-41 -72 0
-51 -72 0
22 29 36 41 51 72 0
-23 -30 0
-23 -52 0
-23 -73 0
-23 -76 0
-23 -79 0
-23 -80 0
-30 -52 0
-30 -73 0
-30 -76 0
-30 -79 0
-30 -80 0
-52 -73 0
-52 -76 0
-52 -79 0
-52 -80 0
-73 -76 0
-73 -79 0
-73 -80 0
-76 -79 0
-76 -80 0
-79 -80 0
23 30 52 73 76 79 80 0